Version identifier: 12.10.0.0 | 2019-11-26 | 843d4de
CPXPARAM_WorkMem                                 28672
Tried aggregator 2 times.
MIP Presolve eliminated 14 rows and 0 columns.
MIP Presolve added 28 rows and 0 columns.
Aggregator did 40 substitutions.
Reduced MIP has 76 rows, 70 columns, and 314 nonzeros.
Reduced MIP has 70 binaries, 0 generals, 0 SOSs, and 0 indicators.
Presolve time = 0,00 sec. (0,63 ticks)
Found incumbent of value 54,000000 after 0,00 sec. (0,73 ticks)
Probing fixed 6 vars, tightened 0 bounds.
Probing time = 0,00 sec. (0,36 ticks)
Tried aggregator 1 time.
Detecting symmetries...
MIP Presolve eliminated 6 rows and 6 columns.
Reduced MIP has 70 rows, 64 columns, and 278 nonzeros.
Reduced MIP has 64 binaries, 0 generals, 0 SOSs, and 0 indicators.
Presolve time = 0,00 sec. (0,24 ticks)
Probing time = 0,00 sec. (0,29 ticks)
Clique table members: 254.
MIP emphasis: balance optimality and feasibility.
MIP search method: dynamic search.
Parallel mode: deterministic, using up to 16 threads.
Root relaxation solution time = 0,00 sec. (0,15 ticks)

        Nodes                                         Cuts/
   Node  Left     Objective  IInf  Best Integer    Best Bound    ItCnt     Gap

*     0+    0                           54,0000        6,0000            88,89%
*     0+    0                           50,0000        6,0000            88,00%
      0     0       33,0000    62       50,0000       33,0000       31   34,00%
      0     0       43,5943    62       50,0000      Cuts: 62       99   12,81%
      0     0       44,9752    62       50,0000      Cuts: 57      132   10,05%
      0     0       45,1435    62       50,0000      Cuts: 40      155    9,71%
      0     0       45,1806    62       50,0000      Cuts: 16      166    9,64%
      0     0       45,1965    62       50,0000      Cuts: 13      179    9,61%
Detecting symmetries...
      0     0       45,2342    62       50,0000       Cuts: 9      193    9,53%
      0     0       45,2639    62       50,0000      Cuts: 18      207    9,47%
      0     0       45,2670    62       50,0000       Cuts: 3      217    9,47%
      0     0       45,2671    62       50,0000       Cuts: 4      219    9,47%
      0     0        cutoff             50,0000       50,0000      219    0,00%
Elapsed time = 0,03 sec. (20,60 ticks, tree = 0,01 MB, solutions = 2)

Clique cuts applied:  3
Cover cuts applied:  2
Implied bound cuts applied:  20
Mixed integer rounding cuts applied:  2
Zero-half cuts applied:  7
Gomory fractional cuts applied:  8

Root node processing (before b&c):
  Real time             =    0,03 sec. (20,60 ticks)
Parallel b&c, 16 threads:
  Real time             =    0,00 sec. (0,00 ticks)
  Sync time (average)   =    0,00 sec.
  Wait time (average)   =    0,00 sec.
                          ------------
Total (root+branch&cut) =    0,03 sec. (20,60 ticks)
